(set-logic QF_ABV)
(declare-fun lhole_value_arg1_a_DONE () (_ BitVec 32))
(declare-fun value_arg1_a () (Array (_ BitVec 32) (_ BitVec 8)))
(declare-fun value_arg1_a_DONE () (Array (_ BitVec 32) (_ BitVec 8)))
(declare-fun rreturn () (_ BitVec 32))
(declare-fun rhole_value_arg1_a () (_ BitVec 32))
(assert (let ((.def_0 (= rreturn #b00000000000000000000000000000000))) (let ((.def_1 (select value_arg1_a_DONE #b00000000000000000000000000000010))) (let ((.def_2 ((_ zero_extend 24) .def_1))) (let ((.def_3 (select value_arg1_a #b00000000000000000000000000000010))) (let ((.def_4 ((_ zero_extend 24) .def_3))) (let ((.def_5 (bvsub .def_4 .def_2))) (let ((.def_6 (= #b00000000000000000000000000000000 .def_5))) (let ((.def_7 (select value_arg1_a_DONE #b00000000000000000000000000000001))) (let ((.def_8 (= #b00101111 .def_7))) (let ((.def_9 (select value_arg1_a_DONE #b00000000000000000000000000000101))) (let ((.def_10 (= #b00000000 .def_9))) (let ((.def_11 (select value_arg1_a_DONE #b00000000000000000000000000000100))) (let ((.def_12 ((_ zero_extend 24) .def_11))) (let ((.def_13 (select value_arg1_a #b00000000000000000000000000000100))) (let ((.def_14 ((_ zero_extend 24) .def_13))) (let ((.def_15 (bvsub .def_14 .def_12))) (let ((.def_16 (= #b00000000000000000000000000000000 .def_15))) (let ((.def_17 (= #b00101111 .def_13))) (let ((.def_18 (not .def_17))) (let ((.def_19 (= #b00000000 .def_3))) (let ((.def_20 (not .def_19))) (let ((.def_21 (= #b00000000 .def_13))) (let ((.def_22 (not .def_21))) (let ((.def_23 (select value_arg1_a #b00000000000000000000000000000001))) (let ((.def_24 (= #b00101111 .def_23))) (let ((.def_25 (= #b00101111 .def_3))) (let ((.def_26 (not .def_25))) (let ((.def_27 (select value_arg1_a_DONE #b00000000000000000000000000000011))) (let ((.def_28 (= #b00101111 .def_27))) (let ((.def_29 (select value_arg1_a #b00000000000000000000000000000000))) (let ((.def_30 (= #b00101111 .def_29))) (let ((.def_31 (not .def_30))) (let ((.def_32 (select value_arg1_a #b00000000000000000000000000000011))) (let ((.def_33 (= #b00101111 .def_32))) (let ((.def_34 (select value_arg1_a #b00000000000000000000000000000101))) (let ((.def_35 (= #b00000000 .def_34))) (let ((.def_36 (select value_arg1_a_DONE #b00000000000000000000000000000000))) (let ((.def_37 ((_ zero_extend 24) .def_36))) (let ((.def_38 ((_ zero_extend 24) .def_29))) (let ((.def_39 (bvsub .def_38 .def_37))) (let ((.def_40 (= #b00000000000000000000000000000000 .def_39))) (let ((.def_41 (= #b00000000 .def_29))) (let ((.def_42 (not .def_41))) (let ((.def_43 (and .def_42 .def_40 .def_35 .def_33 .def_31 .def_28 .def_26 .def_24 .def_22 .def_20 .def_18 .def_16 .def_10 .def_8 .def_6))) (let ((.def_44 ((_ zero_extend 24) .def_7))) (let ((.def_45 ((_ zero_extend 24) .def_23))) (let ((.def_46 (bvsub .def_45 .def_44))) (let ((.def_47 (= #b00000000000000000000000000000000 .def_46))) (let ((.def_48 (= #b00000000 .def_23))) (let ((.def_49 (not .def_48))) (let ((.def_50 (select value_arg1_a_DONE #b00000000000000000000000000000110))) (let ((.def_51 (= #b00000000 .def_50))) (let ((.def_52 (= #b00101111 .def_34))) (let ((.def_53 (not .def_52))) (let ((.def_54 ((_ zero_extend 24) .def_9))) (let ((.def_55 ((_ zero_extend 24) .def_34))) (let ((.def_56 (bvsub .def_55 .def_54))) (let ((.def_57 (= #b00000000000000000000000000000000 .def_56))) (let ((.def_58 (not .def_35))) (let ((.def_59 (not .def_33))) (let ((.def_60 (= #b00101111 .def_11))) (let ((.def_61 (not .def_24))) (let ((.def_62 ((_ zero_extend 24) .def_27))) (let ((.def_63 ((_ zero_extend 24) .def_32))) (let ((.def_64 (bvsub .def_63 .def_62))) (let ((.def_65 (= #b00000000000000000000000000000000 .def_64))) (let ((.def_66 (select value_arg1_a #b00000000000000000000000000000110))) (let ((.def_67 (= #b00000000 .def_66))) (let ((.def_68 (= #b00000000 .def_32))) (let ((.def_69 (not .def_68))) (let ((.def_70 (and .def_17 .def_69 .def_42 .def_67 .def_40 .def_65 .def_31 .def_61 .def_60 .def_26 .def_59 .def_58 .def_20 .def_57 .def_53 .def_51 .def_49 .def_47 .def_6))) (let ((.def_71 (= #b00000000 .def_11))) (let ((.def_72 (= #b00101111 .def_36))) (let ((.def_73 (= #b00101111 .def_1))) (let ((.def_74 (and .def_17 .def_69 .def_73 .def_35 .def_65 .def_72 .def_71 .def_25 .def_59 .def_24 .def_8 .def_30))) (let ((.def_75 (select value_arg1_a #b00000000000000000000000000001010))) (let ((.def_76 (= #b00000000 .def_75))) (let ((.def_77 (select value_arg1_a #b00000000000000000000000000001001))) (let ((.def_78 (= #b00101111 .def_77))) (let ((.def_79 (select value_arg1_a #b00000000000000000000000000000111))) (let ((.def_80 (= #b00101111 .def_79))) (let ((.def_81 (= #b00101111 .def_66))) (let ((.def_82 (= #b00000000 .def_7))) (let ((.def_83 (select value_arg1_a #b00000000000000000000000000001000))) (let ((.def_84 (= #b00101111 .def_83))) (let ((.def_85 (and .def_17 .def_52 .def_84 .def_33 .def_82 .def_72 .def_25 .def_24 .def_81 .def_80 .def_78 .def_76 .def_30))) (let ((.def_86 (and .def_67 .def_33 .def_28 .def_72 .def_26 .def_24 .def_22 .def_20 .def_18 .def_58 .def_53 .def_16 .def_57 .def_8 .def_51 .def_30 .def_6))) (let ((.def_87 (= #b00000000 .def_27))) (let ((.def_88 (and .def_17 .def_87 .def_35 .def_33 .def_72 .def_26 .def_24 .def_20 .def_8 .def_30 .def_6))) (let ((.def_89 (select value_arg1_a #b00000000000000000000000000001101))) (let ((.def_90 (= #b00101111 .def_89))) (let ((.def_91 (select value_arg1_a #b00000000000000000000000000001100))) (let ((.def_92 (= #b00101111 .def_91))) (let ((.def_93 (select value_arg1_a #b00000000000000000000000000001011))) (let ((.def_94 (= #b00101111 .def_93))) (let ((.def_95 (= #b00101111 .def_75))) (let ((.def_96 (select value_arg1_a #b00000000000000000000000000001110))) (let ((.def_97 (= #b00000000 .def_96))) (let ((.def_98 (and .def_17 .def_52 .def_97 .def_84 .def_33 .def_82 .def_72 .def_25 .def_24 .def_81 .def_95 .def_94 .def_80 .def_78 .def_92 .def_30 .def_90))) (let ((.def_99 (= #b00000000 .def_1))) (let ((.def_100 (and .def_99 .def_17 .def_35 .def_33 .def_61 .def_72 .def_25 .def_49 .def_30 .def_47))) (let ((.def_101 (and .def_42 .def_67 .def_40 .def_33 .def_31 .def_61 .def_28 .def_26 .def_22 .def_20 .def_18 .def_58 .def_53 .def_16 .def_57 .def_51 .def_49 .def_47 .def_6))) (let ((.def_102 (and .def_69 .def_42 .def_73 .def_40 .def_35 .def_65 .def_31 .def_25 .def_24 .def_59 .def_22 .def_18 .def_16 .def_10 .def_8))) (let ((.def_103 (and .def_17 .def_87 .def_42 .def_40 .def_35 .def_33 .def_31 .def_26 .def_24 .def_20 .def_8 .def_6))) (let ((.def_104 (and .def_42 .def_73 .def_67 .def_40 .def_33 .def_31 .def_61 .def_28 .def_25 .def_22 .def_18 .def_58 .def_53 .def_16 .def_57 .def_51 .def_49 .def_47))) (let ((.def_105 (and .def_35 .def_33 .def_28 .def_72 .def_26 .def_24 .def_22 .def_20 .def_18 .def_16 .def_10 .def_8 .def_30 .def_6))) (let ((.def_106 (and .def_69 .def_73 .def_35 .def_65 .def_61 .def_72 .def_25 .def_59 .def_22 .def_18 .def_16 .def_10 .def_49 .def_30 .def_47))) (let ((.def_107 (and .def_69 .def_73 .def_67 .def_65 .def_61 .def_72 .def_25 .def_59 .def_22 .def_18 .def_58 .def_53 .def_16 .def_57 .def_51 .def_49 .def_30 .def_47))) (let ((.def_108 (and .def_17 .def_69 .def_35 .def_65 .def_72 .def_26 .def_71 .def_24 .def_59 .def_20 .def_8 .def_30 .def_6))) (let ((.def_109 (and .def_52 .def_69 .def_67 .def_65 .def_61 .def_72 .def_26 .def_59 .def_22 .def_20 .def_18 .def_16 .def_10 .def_49 .def_30 .def_47 .def_6))) (let ((.def_110 (and .def_42 .def_40 .def_35 .def_33 .def_31 .def_61 .def_28 .def_26 .def_22 .def_20 .def_18 .def_16 .def_10 .def_49 .def_47 .def_6))) (let ((.def_111 (and .def_73 .def_35 .def_33 .def_61 .def_72 .def_28 .def_25 .def_22 .def_18 .def_16 .def_10 .def_49 .def_30 .def_47))) (let ((.def_112 (and .def_17 .def_42 .def_73 .def_67 .def_40 .def_33 .def_31 .def_28 .def_60 .def_25 .def_24 .def_58 .def_57 .def_53 .def_51 .def_8))) (let ((.def_113 (and .def_17 .def_69 .def_73 .def_35 .def_65 .def_61 .def_72 .def_71 .def_25 .def_59 .def_49 .def_30 .def_47))) (let ((.def_114 (and .def_67 .def_33 .def_61 .def_72 .def_26 .def_28 .def_22 .def_20 .def_18 .def_58 .def_53 .def_16 .def_57 .def_51 .def_49 .def_30 .def_47 .def_6))) (let ((.def_115 (and .def_17 .def_69 .def_42 .def_73 .def_40 .def_35 .def_65 .def_31 .def_61 .def_71 .def_25 .def_59 .def_49 .def_47))) (let ((.def_116 (and .def_42 .def_73 .def_40 .def_35 .def_33 .def_31 .def_28 .def_25 .def_24 .def_22 .def_18 .def_16 .def_10 .def_8))) (let ((.def_117 (and .def_17 .def_52 .def_67 .def_33 .def_82 .def_72 .def_25 .def_24 .def_30))) (let ((.def_118 (and .def_42 .def_73 .def_67 .def_40 .def_33 .def_31 .def_28 .def_25 .def_24 .def_22 .def_18 .def_58 .def_53 .def_16 .def_57 .def_51 .def_8))) (let ((.def_119 (and .def_42 .def_73 .def_40 .def_35 .def_33 .def_31 .def_61 .def_28 .def_25 .def_22 .def_18 .def_16 .def_10 .def_49 .def_47))) (let ((.def_120 (and .def_69 .def_73 .def_67 .def_65 .def_72 .def_25 .def_24 .def_22 .def_59 .def_18 .def_58 .def_53 .def_16 .def_57 .def_8 .def_51 .def_30))) (let ((.def_121 (and .def_69 .def_73 .def_35 .def_65 .def_72 .def_25 .def_24 .def_22 .def_59 .def_18 .def_16 .def_10 .def_8 .def_30))) (let ((.def_122 (and .def_17 .def_69 .def_42 .def_73 .def_40 .def_35 .def_65 .def_31 .def_71 .def_25 .def_24 .def_59 .def_8))) (let ((.def_123 (and .def_17 .def_52 .def_69 .def_42 .def_73 .def_67 .def_40 .def_65 .def_31 .def_61 .def_71 .def_25 .def_59 .def_49 .def_47))) (let ((.def_124 (and .def_99 .def_17 .def_42 .def_40 .def_35 .def_33 .def_31 .def_61 .def_25 .def_49 .def_47))) (let ((.def_125 (and .def_69 .def_42 .def_73 .def_67 .def_40 .def_65 .def_31 .def_61 .def_25 .def_59 .def_22 .def_18 .def_58 .def_53 .def_16 .def_57 .def_51 .def_49 .def_47))) (let ((.def_126 (and .def_17 .def_42 .def_40 .def_35 .def_33 .def_82 .def_31 .def_25 .def_24))) (let ((.def_127 (and .def_69 .def_35 .def_65 .def_72 .def_26 .def_24 .def_59 .def_20 .def_22 .def_18 .def_16 .def_10 .def_8 .def_30 .def_6))) (let ((.def_128 (and .def_17 .def_52 .def_69 .def_42 .def_67 .def_40 .def_65 .def_31 .def_61 .def_71 .def_26 .def_59 .def_20 .def_49 .def_47 .def_6))) (let ((.def_129 (and .def_17 .def_69 .def_35 .def_65 .def_61 .def_72 .def_26 .def_71 .def_59 .def_20 .def_49 .def_30 .def_47 .def_6))) (let ((.def_130 (and .def_17 .def_52 .def_87 .def_42 .def_40 .def_67 .def_33 .def_31 .def_61 .def_26 .def_20 .def_49 .def_47 .def_6))) (let ((.def_131 (and .def_69 .def_42 .def_73 .def_40 .def_35 .def_65 .def_31 .def_61 .def_25 .def_59 .def_22 .def_18 .def_16 .def_10 .def_49 .def_47))) (let ((.def_132 (and .def_17 .def_69 .def_42 .def_40 .def_35 .def_65 .def_31 .def_71 .def_26 .def_24 .def_59 .def_20 .def_8 .def_6))) (let ((.def_133 (and .def_17 .def_69 .def_73 .def_67 .def_65 .def_61 .def_72 .def_60 .def_25 .def_59 .def_58 .def_57 .def_53 .def_51 .def_49 .def_30 .def_47))) (let ((.def_134 (and .def_35 .def_33 .def_61 .def_72 .def_26 .def_28 .def_22 .def_20 .def_18 .def_16 .def_10 .def_49 .def_30 .def_47 .def_6))) (let ((.def_135 (and .def_17 .def_87 .def_35 .def_33 .def_61 .def_72 .def_26 .def_20 .def_49 .def_30 .def_47 .def_6))) (let ((.def_136 (and .def_69 .def_42 .def_67 .def_40 .def_65 .def_31 .def_26 .def_24 .def_59 .def_20 .def_22 .def_18 .def_58 .def_53 .def_16 .def_8 .def_57 .def_51 .def_6))) (let ((.def_137 (and .def_17 .def_87 .def_42 .def_40 .def_35 .def_33 .def_31 .def_61 .def_26 .def_20 .def_49 .def_47 .def_6))) (let ((.def_138 (and .def_17 .def_69 .def_42 .def_40 .def_35 .def_65 .def_31 .def_61 .def_71 .def_26 .def_59 .def_20 .def_49 .def_47 .def_6))) (let ((.def_139 (and .def_17 .def_69 .def_42 .def_73 .def_67 .def_40 .def_65 .def_31 .def_61 .def_60 .def_25 .def_59 .def_58 .def_57 .def_53 .def_51 .def_49 .def_47))) (let ((.def_140 (and .def_69 .def_35 .def_65 .def_61 .def_72 .def_26 .def_59 .def_22 .def_20 .def_18 .def_16 .def_10 .def_49 .def_30 .def_47 .def_6))) (let ((.def_141 (and .def_69 .def_42 .def_73 .def_67 .def_40 .def_65 .def_31 .def_25 .def_24 .def_59 .def_22 .def_18 .def_58 .def_53 .def_16 .def_57 .def_8 .def_51))) (let ((.def_142 (and .def_69 .def_42 .def_40 .def_35 .def_65 .def_31 .def_61 .def_26 .def_59 .def_22 .def_20 .def_18 .def_16 .def_10 .def_49 .def_47 .def_6))) (let ((.def_143 (and .def_69 .def_42 .def_40 .def_35 .def_65 .def_31 .def_26 .def_24 .def_59 .def_20 .def_22 .def_18 .def_16 .def_10 .def_8 .def_6))) (let ((.def_144 (and .def_69 .def_67 .def_65 .def_61 .def_72 .def_26 .def_59 .def_22 .def_20 .def_18 .def_58 .def_53 .def_16 .def_57 .def_51 .def_49 .def_30 .def_47 .def_6))) (let ((.def_145 (and .def_17 .def_35 .def_33 .def_82 .def_72 .def_25 .def_24 .def_30))) (let ((.def_146 (and .def_17 .def_69 .def_73 .def_67 .def_65 .def_60 .def_72 .def_25 .def_59 .def_24 .def_58 .def_57 .def_53 .def_51 .def_8 .def_30))) (let ((.def_147 (and .def_52 .def_69 .def_42 .def_40 .def_67 .def_65 .def_31 .def_26 .def_24 .def_59 .def_20 .def_22 .def_18 .def_16 .def_10 .def_8 .def_6))) (let ((.def_148 (and .def_17 .def_52 .def_87 .def_67 .def_33 .def_72 .def_26 .def_24 .def_20 .def_8 .def_30 .def_6))) (let ((.def_149 (and .def_17 .def_52 .def_69 .def_73 .def_67 .def_65 .def_61 .def_72 .def_71 .def_25 .def_59 .def_49 .def_30 .def_47))) (let ((.def_150 (and .def_17 .def_52 .def_69 .def_42 .def_67 .def_40 .def_65 .def_31 .def_71 .def_26 .def_24 .def_59 .def_20 .def_8 .def_6))) (let ((.def_151 (and .def_99 .def_17 .def_52 .def_67 .def_33 .def_61 .def_72 .def_25 .def_49 .def_30 .def_47))) (let ((.def_152 (and .def_17 .def_69 .def_67 .def_65 .def_60 .def_72 .def_26 .def_24 .def_59 .def_20 .def_58 .def_53 .def_57 .def_51 .def_8 .def_30 .def_6))) (let ((.def_153 (and .def_52 .def_69 .def_42 .def_40 .def_67 .def_65 .def_31 .def_61 .def_26 .def_59 .def_22 .def_20 .def_18 .def_16 .def_10 .def_49 .def_47 .def_6))) (let ((.def_154 (and .def_69 .def_42 .def_67 .def_40 .def_65 .def_31 .def_61 .def_26 .def_59 .def_22 .def_20 .def_18 .def_58 .def_53 .def_16 .def_57 .def_51 .def_49 .def_47 .def_6))) (let ((.def_155 (and .def_52 .def_67 .def_33 .def_28 .def_72 .def_26 .def_24 .def_22 .def_20 .def_18 .def_16 .def_10 .def_8 .def_30 .def_6))) (let ((.def_156 (and .def_73 .def_67 .def_33 .def_28 .def_72 .def_25 .def_24 .def_22 .def_18 .def_58 .def_53 .def_16 .def_57 .def_51 .def_8 .def_30))) (let ((.def_157 (= #b00101111 .def_9))) (let ((.def_158 (not .def_67))) (let ((.def_159 (not .def_81))) (let ((.def_160 (= #b00000000 .def_79))) (let ((.def_161 (select value_arg1_a_DONE #b00000000000000000000000000000111))) (let ((.def_162 (= #b00000000 .def_161))) (let ((.def_163 ((_ zero_extend 24) .def_50))) (let ((.def_164 ((_ zero_extend 24) .def_66))) (let ((.def_165 (bvsub .def_164 .def_163))) (let ((.def_166 (= #b00000000000000000000000000000000 .def_165))) (let ((.def_167 (and .def_8 .def_17 .def_52 .def_166 .def_162 .def_33 .def_28 .def_72 .def_26 .def_60 .def_24 .def_20 .def_160 .def_159 .def_158 .def_30 .def_157 .def_6))) (let ((.def_168 (and .def_17 .def_67 .def_33 .def_28 .def_72 .def_26 .def_60 .def_24 .def_58 .def_20 .def_57 .def_53 .def_51 .def_8 .def_30 .def_6))) (let ((.def_169 (and .def_17 .def_73 .def_67 .def_33 .def_61 .def_72 .def_28 .def_25 .def_60 .def_58 .def_57 .def_53 .def_51 .def_49 .def_30 .def_47))) (let ((.def_170 (and .def_8 .def_17 .def_52 .def_166 .def_162 .def_73 .def_33 .def_28 .def_72 .def_60 .def_25 .def_24 .def_160 .def_159 .def_158 .def_30 .def_157))) (let ((.def_171 (and .def_17 .def_52 .def_69 .def_42 .def_73 .def_67 .def_40 .def_65 .def_31 .def_71 .def_25 .def_24 .def_59 .def_8))) (let ((.def_172 (and .def_17 .def_73 .def_33 .def_28 .def_72 .def_60 .def_25 .def_24 .def_58 .def_81 .def_57 .def_53 .def_160 .def_51 .def_8 .def_30))) (let ((.def_173 (and .def_17 .def_69 .def_42 .def_67 .def_40 .def_65 .def_31 .def_60 .def_26 .def_24 .def_59 .def_20 .def_58 .def_53 .def_57 .def_51 .def_8 .def_6))) (let ((.def_174 (and .def_52 .def_42 .def_40 .def_33 .def_31 .def_28 .def_26 .def_24 .def_22 .def_20 .def_18 .def_81 .def_160 .def_16 .def_10 .def_8 .def_6))) (let ((.def_175 (and .def_42 .def_67 .def_40 .def_33 .def_31 .def_28 .def_26 .def_24 .def_22 .def_20 .def_18 .def_58 .def_53 .def_16 .def_57 .def_8 .def_51 .def_6))) (let ((.def_176 (and .def_8 .def_52 .def_166 .def_42 .def_162 .def_40 .def_33 .def_31 .def_28 .def_26 .def_24 .def_22 .def_20 .def_18 .def_16 .def_160 .def_159 .def_158 .def_157 .def_6))) (let ((.def_177 (and .def_52 .def_42 .def_40 .def_67 .def_33 .def_31 .def_28 .def_26 .def_24 .def_22 .def_20 .def_18 .def_16 .def_10 .def_8 .def_6))) (let ((.def_178 (and .def_17 .def_42 .def_67 .def_40 .def_33 .def_31 .def_28 .def_60 .def_26 .def_24 .def_58 .def_20 .def_57 .def_53 .def_51 .def_8 .def_6))) (let ((.def_179 (and .def_8 .def_52 .def_69 .def_166 .def_162 .def_73 .def_65 .def_72 .def_25 .def_24 .def_22 .def_59 .def_18 .def_16 .def_160 .def_159 .def_158 .def_30 .def_157))) (let ((.def_180 (and .def_17 .def_52 .def_87 .def_67 .def_33 .def_61 .def_72 .def_26 .def_20 .def_49 .def_30 .def_47 .def_6))) (let ((.def_181 (and .def_52 .def_73 .def_67 .def_33 .def_28 .def_72 .def_25 .def_24 .def_22 .def_18 .def_16 .def_10 .def_8 .def_30))) (let ((.def_182 (and .def_52 .def_33 .def_28 .def_72 .def_26 .def_24 .def_22 .def_20 .def_18 .def_81 .def_160 .def_16 .def_10 .def_8 .def_30 .def_6))) (let ((.def_183 (and .def_17 .def_52 .def_69 .def_73 .def_67 .def_65 .def_72 .def_71 .def_25 .def_59 .def_24 .def_8 .def_30))) (let ((.def_184 (and .def_17 .def_52 .def_87 .def_42 .def_40 .def_33 .def_31 .def_26 .def_24 .def_81 .def_20 .def_160 .def_8 .def_6))) (let ((.def_185 (and .def_17 .def_73 .def_67 .def_33 .def_28 .def_72 .def_60 .def_25 .def_24 .def_58 .def_57 .def_53 .def_51 .def_8 .def_30))) (let ((.def_186 (and .def_17 .def_42 .def_73 .def_67 .def_40 .def_33 .def_31 .def_61 .def_28 .def_60 .def_25 .def_58 .def_57 .def_53 .def_51 .def_49 .def_47))) (let ((.def_187 (and .def_8 .def_52 .def_69 .def_42 .def_166 .def_73 .def_40 .def_162 .def_65 .def_31 .def_25 .def_24 .def_59 .def_22 .def_18 .def_16 .def_160 .def_159 .def_158 .def_157))) (let ((.def_188 (and .def_17 .def_69 .def_42 .def_73 .def_67 .def_40 .def_65 .def_31 .def_60 .def_25 .def_24 .def_59 .def_58 .def_57 .def_53 .def_51 .def_8))) (let ((.def_189 (and .def_8 .def_17 .def_166 .def_69 .def_42 .def_162 .def_73 .def_40 .def_65 .def_31 .def_60 .def_25 .def_24 .def_59 .def_58 .def_57 .def_53 .def_160 .def_159 .def_158))) (let ((.def_190 (and .def_17 .def_52 .def_69 .def_67 .def_65 .def_72 .def_26 .def_71 .def_24 .def_59 .def_20 .def_8 .def_30 .def_6))) (let ((.def_191 (and .def_52 .def_67 .def_33 .def_61 .def_72 .def_26 .def_28 .def_22 .def_20 .def_18 .def_16 .def_10 .def_49 .def_30 .def_47 .def_6))) (let ((.def_192 (and .def_8 .def_166 .def_42 .def_162 .def_73 .def_40 .def_33 .def_31 .def_28 .def_25 .def_24 .def_22 .def_18 .def_58 .def_53 .def_160 .def_159 .def_16 .def_158 .def_57))) (let ((.def_193 (and .def_52 .def_42 .def_40 .def_67 .def_33 .def_31 .def_61 .def_28 .def_26 .def_22 .def_20 .def_18 .def_16 .def_10 .def_49 .def_47 .def_6))) (let ((.def_194 (= #b00000000 .def_36))) (let ((.def_195 (not .def_194))) (let ((.def_196 (and .def_195 .def_41))) (let ((.def_197 (and .def_41 .def_194))) (let ((.def_198 (and .def_48 .def_42 .def_40 .def_82 .def_31))) (let ((.def_199 (and .def_17 .def_52 .def_87 .def_42 .def_40 .def_67 .def_33 .def_31 .def_26 .def_24 .def_20 .def_8 .def_6))) (let ((.def_200 (and .def_48 .def_30 .def_82 .def_72))) (let ((.def_201 (and .def_99 .def_61 .def_72 .def_19 .def_49 .def_30 .def_47))) (let ((.def_202 (and .def_33 .def_28 .def_16 .def_57 .def_158 .def_49 .def_73 .def_40 .def_22 .def_160 .def_47 .def_166 .def_42 .def_162 .def_31 .def_61 .def_25 .def_18 .def_53 .def_159 .def_58))) (let ((.def_203 (and .def_52 .def_42 .def_73 .def_40 .def_67 .def_33 .def_31 .def_28 .def_25 .def_24 .def_22 .def_18 .def_16 .def_10 .def_8))) (let ((.def_204 (and .def_42 .def_40 .def_82 .def_31 .def_24 .def_19))) (let ((.def_205 (and .def_99 .def_42 .def_40 .def_31 .def_61 .def_19 .def_49 .def_47))) (let ((.def_206 (and .def_17 .def_42 .def_67 .def_40 .def_33 .def_31 .def_61 .def_28 .def_26 .def_60 .def_58 .def_20 .def_57 .def_53 .def_51 .def_49 .def_47 .def_6))) (let ((.def_207 (and .def_82 .def_72 .def_24 .def_19 .def_30))) (let ((.def_208 (and .def_87 .def_72 .def_26 .def_24 .def_20 .def_68 .def_8 .def_30 .def_6))) (let ((.def_209 (and .def_69 .def_42 .def_73 .def_40 .def_65 .def_31 .def_61 .def_25 .def_59 .def_22 .def_18 .def_58 .def_53 .def_81 .def_160 .def_16 .def_57 .def_49 .def_51 .def_47))) (let ((.def_210 (and .def_42 .def_40 .def_82 .def_31 .def_25 .def_24 .def_68))) (let ((.def_211 (and .def_52 .def_69 .def_67 .def_65 .def_72 .def_26 .def_24 .def_59 .def_20 .def_22 .def_18 .def_16 .def_10 .def_8 .def_30 .def_6))) (let ((.def_212 (and .def_99 .def_61 .def_72 .def_25 .def_68 .def_49 .def_30 .def_47))) (let ((.def_213 (and .def_87 .def_42 .def_40 .def_31 .def_26 .def_24 .def_20 .def_68 .def_8 .def_6))) (let ((.def_214 (and .def_99 .def_17 .def_52 .def_42 .def_67 .def_40 .def_33 .def_31 .def_61 .def_25 .def_49 .def_47))) (let ((.def_215 (and .def_87 .def_61 .def_72 .def_26 .def_20 .def_68 .def_49 .def_30 .def_47 .def_6))) (let ((.def_216 (and .def_52 .def_69 .def_73 .def_67 .def_65 .def_61 .def_72 .def_25 .def_59 .def_22 .def_18 .def_16 .def_10 .def_49 .def_30 .def_47))) (let ((.def_217 (and .def_99 .def_17 .def_52 .def_33 .def_61 .def_72 .def_25 .def_81 .def_160 .def_49 .def_30 .def_47))) (let ((.def_218 (and .def_87 .def_42 .def_40 .def_31 .def_61 .def_26 .def_20 .def_68 .def_49 .def_47 .def_6))) (let ((.def_219 (and .def_99 .def_42 .def_40 .def_31 .def_61 .def_25 .def_68 .def_49 .def_47))) (let ((.def_220 (and .def_17 .def_67 .def_33 .def_61 .def_72 .def_26 .def_28 .def_60 .def_58 .def_20 .def_57 .def_53 .def_51 .def_49 .def_30 .def_47 .def_6))) (let ((.def_221 (and .def_8 .def_17 .def_52 .def_69 .def_42 .def_166 .def_73 .def_40 .def_162 .def_65 .def_31 .def_60 .def_25 .def_24 .def_59 .def_160 .def_159 .def_158 .def_157))) (let ((.def_222 (and .def_82 .def_72 .def_25 .def_24 .def_68 .def_30))) (let ((.def_223 (and .def_99 .def_33 .def_61 .def_21 .def_72 .def_25 .def_49 .def_30 .def_47))) (let ((.def_224 (and .def_87 .def_42 .def_40 .def_33 .def_31 .def_21 .def_26 .def_24 .def_20 .def_8 .def_6))) (let ((.def_225 (and .def_52 .def_69 .def_73 .def_67 .def_65 .def_72 .def_25 .def_24 .def_22 .def_59 .def_18 .def_16 .def_10 .def_8 .def_30))) (let ((.def_226 (and .def_87 .def_33 .def_72 .def_21 .def_26 .def_24 .def_20 .def_8 .def_30 .def_6))) (let ((.def_227 (and .def_73 .def_67 .def_33 .def_61 .def_72 .def_28 .def_25 .def_22 .def_18 .def_58 .def_53 .def_16 .def_57 .def_51 .def_49 .def_30 .def_47))) (let ((.def_228 (and .def_69 .def_73 .def_65 .def_21 .def_72 .def_25 .def_24 .def_59 .def_71 .def_8 .def_30))) (let ((.def_229 (and .def_52 .def_33 .def_61 .def_72 .def_26 .def_28 .def_81 .def_22 .def_20 .def_18 .def_16 .def_160 .def_10 .def_49 .def_30 .def_47 .def_6))) (let ((.def_230 (and .def_69 .def_73 .def_65 .def_61 .def_21 .def_72 .def_25 .def_59 .def_71 .def_49 .def_30 .def_47))) (let ((.def_231 (and .def_52 .def_42 .def_73 .def_40 .def_67 .def_33 .def_31 .def_61 .def_28 .def_25 .def_22 .def_18 .def_16 .def_10 .def_49 .def_47))) (let ((.def_232 (and .def_42 .def_40 .def_33 .def_82 .def_31 .def_21 .def_25 .def_24))) (let ((.def_233 (and .def_69 .def_65 .def_21 .def_72 .def_26 .def_24 .def_59 .def_20 .def_71 .def_8 .def_30 .def_6))) (let ((.def_234 (and .def_69 .def_67 .def_65 .def_72 .def_26 .def_24 .def_59 .def_20 .def_22 .def_18 .def_58 .def_53 .def_16 .def_8 .def_57 .def_51 .def_30 .def_6))) (let ((.def_235 (= #b00000000 .def_83))) (let ((.def_236 (and .def_17 .def_166 .def_162 .def_73 .def_235 .def_33 .def_61 .def_72 .def_28 .def_25 .def_60 .def_58 .def_57 .def_53 .def_80 .def_159 .def_158 .def_49 .def_30 .def_47))) (let ((.def_237 (and .def_69 .def_42 .def_73 .def_40 .def_65 .def_31 .def_21 .def_71 .def_25 .def_24 .def_59 .def_8))) (let ((.def_238 (and .def_87 .def_42 .def_40 .def_33 .def_31 .def_61 .def_21 .def_26 .def_20 .def_49 .def_47 .def_6))) (let ((.def_239 (and .def_52 .def_69 .def_42 .def_73 .def_67 .def_40 .def_65 .def_31 .def_61 .def_25 .def_59 .def_22 .def_18 .def_16 .def_10 .def_49 .def_47))) (let ((.def_240 (and .def_87 .def_33 .def_61 .def_72 .def_21 .def_26 .def_20 .def_49 .def_30 .def_47 .def_6))) (let ((.def_241 (and .def_69 .def_42 .def_73 .def_40 .def_65 .def_31 .def_61 .def_21 .def_71 .def_25 .def_59 .def_49 .def_47))) (let ((.def_242 (and .def_17 .def_52 .def_69 .def_67 .def_65 .def_61 .def_72 .def_26 .def_71 .def_59 .def_20 .def_49 .def_30 .def_47 .def_6))) (let ((.def_243 (and .def_69 .def_42 .def_40 .def_65 .def_31 .def_21 .def_26 .def_71 .def_24 .def_59 .def_20 .def_8 .def_6))) (let ((.def_244 (and .def_17 .def_69 .def_67 .def_65 .def_61 .def_72 .def_26 .def_60 .def_59 .def_58 .def_20 .def_57 .def_53 .def_51 .def_49 .def_30 .def_47 .def_6))) (let ((.def_245 (and .def_17 .def_52 .def_33 .def_82 .def_72 .def_25 .def_24 .def_81 .def_80 .def_235 .def_30))) (let ((.def_246 (and .def_69 .def_65 .def_61 .def_21 .def_72 .def_26 .def_59 .def_71 .def_20 .def_49 .def_30 .def_47 .def_6))) (let ((.def_247 (= #b00000000 .def_77))) (let ((.def_248 (and .def_17 .def_52 .def_84 .def_33 .def_82 .def_247 .def_72 .def_25 .def_24 .def_81 .def_80 .def_30))) (let ((.def_249 (not .def_160))) (let ((.def_250 (not .def_80))) (let ((.def_251 (select value_arg1_a_DONE #b00000000000000000000000000001000))) (let ((.def_252 (= #b00000000 .def_251))) (let ((.def_253 ((_ zero_extend 24) .def_161))) (let ((.def_254 ((_ zero_extend 24) .def_79))) (let ((.def_255 (bvsub .def_254 .def_253))) (let ((.def_256 (= #b00000000000000000000000000000000 .def_255))) (let ((.def_257 (= #b00101111 .def_50))) (let ((.def_258 (and .def_17 .def_257 .def_256 .def_33 .def_252 .def_60 .def_28 .def_57 .def_30 .def_72 .def_24 .def_81 .def_26 .def_53 .def_250 .def_8 .def_6 .def_84 .def_249 .def_58 .def_20 .def_78 .def_76))) (let ((.def_259 (and .def_99 .def_42 .def_40 .def_33 .def_31 .def_61 .def_21 .def_25 .def_49 .def_47))) (let ((.def_260 (and .def_17 .def_52 .def_42 .def_40 .def_67 .def_33 .def_82 .def_31 .def_25 .def_24))) (let ((.def_261 (and .def_69 .def_42 .def_40 .def_65 .def_31 .def_61 .def_21 .def_26 .def_71 .def_59 .def_20 .def_49 .def_47 .def_6))) (let ((.def_262 (and .def_52 .def_69 .def_42 .def_73 .def_67 .def_40 .def_65 .def_31 .def_25 .def_24 .def_59 .def_22 .def_18 .def_16 .def_10 .def_8))) (let ((.def_263 (and .def_33 .def_82 .def_72 .def_21 .def_25 .def_24 .def_30))) (let ((.def_264 (and .def_52 .def_73 .def_67 .def_33 .def_61 .def_72 .def_28 .def_25 .def_22 .def_18 .def_16 .def_10 .def_49 .def_30 .def_47))) (let ((.def_265 (and .def_73 .def_35 .def_33 .def_28 .def_72 .def_25 .def_24 .def_22 .def_18 .def_16 .def_10 .def_8 .def_30))) (let ((.def_266 (or .def_265 .def_264 .def_263 .def_262 .def_261 .def_260 .def_259 .def_258 .def_248 .def_246 .def_245 .def_244 .def_243 .def_242 .def_241 .def_240 .def_239 .def_238 .def_237 .def_236 .def_234 .def_233 .def_232 .def_231 .def_230 .def_229 .def_228 .def_227 .def_226 .def_225 .def_224 .def_223 .def_222 .def_221 .def_220 .def_219 .def_218 .def_217 .def_216 .def_215 .def_214 .def_213 .def_212 .def_211 .def_210 .def_209 .def_208 .def_207 .def_206 .def_205 .def_204 .def_203 .def_202 .def_201 .def_200 .def_199 .def_198 .def_197 .def_196 .def_193 .def_192 .def_191 .def_190 .def_189 .def_188 .def_187 .def_186 .def_185 .def_184 .def_183 .def_182 .def_181 .def_180 .def_179 .def_178 .def_177 .def_176 .def_175 .def_174 .def_173 .def_172 .def_171 .def_170 .def_169 .def_168 .def_167 .def_156 .def_155 .def_154 .def_153 .def_152 .def_151 .def_150 .def_149 .def_148 .def_147 .def_146 .def_145 .def_144 .def_143 .def_142 .def_141 .def_140 .def_139 .def_138 .def_137 .def_136 .def_135 .def_134 .def_133 .def_132 .def_131 .def_130 .def_129 .def_128 .def_127 .def_126 .def_125 .def_124 .def_123 .def_122 .def_121 .def_120 .def_119 .def_118 .def_117 .def_116 .def_115 .def_114 .def_113 .def_112 .def_111 .def_110 .def_109 .def_108 .def_107 .def_106 .def_105 .def_104 .def_103 .def_102 .def_101 .def_100 .def_98 .def_88 .def_86 .def_85 .def_74 .def_70 .def_43))) (let ((.def_267 (concat .def_32 .def_3))) (let ((.def_268 (concat .def_267 .def_23))) (let ((.def_269 (concat .def_268 .def_29))) (let ((.def_270 (= rhole_value_arg1_a .def_269))) (let ((.def_271 (concat .def_27 .def_1))) (let ((.def_272 (concat .def_271 .def_7))) (let ((.def_273 (concat .def_272 .def_36))) (let ((.def_274 (= lhole_value_arg1_a_DONE .def_273))) (let ((.def_275 (and .def_274 .def_270 .def_266))) (let ((.def_276 (and .def_275 .def_0))) .def_276))))))))))))))))))))))))))))))))))))))))))))))))))))))))))))))))))))))))))))))))))))))))))))))))))))))))))))))))))))))))))))))))))))))))))))))))))))))))))))))))))))))))))))))))))))))))))))))))))))))))))))))))))))))))))))))))))))))))))))))))))))))))))))))))))))))))))))))))))))))
(check-sat)
